<number of tasks>
50

<cycle time>
1000

<order strength>
0.195


<task times>
1 440
2 417
3 450
4 520
5 516
6 391
7 569
8 433
9 350
10 610
11 372
12 189
13 476
14 177
15 440
16 398
17 554
18 443
19 547
20 473
21 609
22 664
23 561
24 479
25 592
26 404
27 613
28 491
29 508
30 316
31 350
32 451
33 702
34 491
35 559
36 535
37 415
38 628
39 225
40 391
41 557
42 537
43 530
44 601
45 579
46 513
47 288
48 742
49 590
50 548

<precedence relations>
1,8
2,7
3,10
3,11
4,12
4,18
5,9
5,11
7,14
8,15
9,13
9,16
9,17
9,38
10,18
12,17
13,19
14,21
15,22
16,23
17,20
17,24
17,46
18,25
18,39
19,26
20,28
21,30
22,31
23,27
24,29
24,32
24,33
25,34
25,40
25,44
26,39
27,35
28,36
29,37
30,40
31,38
35,42
36,44
37,43
38,41
41,45
42,46
43,47
44,48
44,49
44,50

<end>
